Route #1: 1 9 20 12 20 14 58 16 6 30 46 5 1 
Route #2: 1 6 37 21 38 6 61 6 49 31 1 
Route #3: 1 63 23 62 22 48 6 28 53 35 1 
Route #4: 1 3 29 23 65 43 23 2 34 7 1 
Route #5: 1 18 41 26 56 26 19 51 10 40 1 
Route #6: 1 13 40 4 45 33 40 32 40 1 
Route #7: 1 52 17 24 44 42 57 24 50 25 24 64 1 
Route #8: 1 40 39 40 11 59 40 27 1 
Route #9: 1 47 55 20 60 20 54 15 20 36 8 1 
Cost 1026.0
